\ENCODING=ISO-8859-1
\Problem name: 

Minimize
 obj1: x1 + x2 + x3
Subject To
 c1:  x1 + x9 + x11  = 1
 c2:  x2 + x7 + x12  = 1
 c3:  x3 + x8 + x10  = 1
 c4:  x4 - x5 + 3 x7 <= 2
 c5:  x4 - x6 + 3 x8 <= 2
 c6:  - x4 + x5 + 3 x9 <= 2
 c7:  x5 - x6 + 3 x10 <= 2
 c8:  - x4 + x6 + 3 x11 <= 2
 c9:  - x5 + x6 + 3 x12 <= 2
 c10: - x5 + x6 + 3 x7 <= 2
 c11: x5 - x6 + 3 x8 <= 2
 c12: - x4 + x6 + 3 x9 <= 2
 c13: x4 - x6 + 3 x10 <= 2
 c14: - x4 + x5 + 3 x11 <= 2
 c15: x4 - x5 + 3 x12 <= 2
 c16: 2 x1 + x4 <= 2
 c17: 2 x2 + x5 <= 2
 c18: 2 x3 + x6 <= 2
Bounds
 0 <= x1 <= 1
 0 <= x2 <= 1
 0 <= x3 <= 1
 0 <= x4 <= 2
 0 <= x5 <= 2
 0 <= x6 <= 2
 0 <= x7 <= 1
 0 <= x8 <= 1
 0 <= x9 <= 1
 0 <= x10 <= 1
 0 <= x11 <= 1
 0 <= x12 <= 1
Generals
 x1  x2  x3  x4  x5  x6  x7  x8  x9  x10  x11  x12 
End
